c ---- [ banner ] ------------------------------------------------------------
c
c KISSAT SAT Solver
c Copyright (c) 2019-2021 Armin Biere JKU Linz
c 
c Version 2.0.1 02cd69626a53e93e09286b1978ccb5d6bec58b8e
c Apple clang version 13.1.6 (clang-1316.0.21.2) -W -Wall -O3 -DNDEBUG
c Thu Mar 31 15:34:51 EDT 2022 Darwin Randals-Macbook-Pro.local 21.2.0 arm64
c
c ---- [ proving ] -----------------------------------------------------------
c
c opened and writing proof to DRAT file:
c
c   chew-32-123456.drat
c
c ---- [ parsing ] -----------------------------------------------------------
c
c opened and reading DIMACS file:
c
c   chew-32-123456.cnf
c
c parsed 'p cnf 90 240' header
c closing input after reading 2941 bytes (3 KB)
c finished parsing after 0.00 seconds
c
c ---- [ options ] -----------------------------------------------------------
c
c --stable=0                       (different from default '1')
c
c ---- [ solving ] -----------------------------------------------------------
c
c  seconds switched rate      trail  variables
c         MB reductions conflicts glue   remaining
c          level restarts redundant irredundant
c
c *  0.00  0 0 0 0  0 0   0   0 0% 0 240 90 99%
c {  0.00  0 0 0 0  0 0   0   0 0% 0 240 90 99%
c -  0.00  0 27 0 1  0 1 301  41 97% 19 240 90 99%
c -  0.01  0 25 0 2 69 2 1302 125 68% 17 240 90 99%
c -  0.02  0 24 0 3 69 2 2718 211 69% 17 240 90 99%
c e  0.02  0 24 0 3 69 2 2876 286 69% 17 240 62 68%
c ^  0.02  0 24 0 3 69 2 2876 286 69% 17 240 62 68%
c -  0.03  0 24 0 4 69 1 4452 207 72% 15 240 62 68%
c u  0.03  0 24 0 4 69 1 4575 255 72% 15 240 62 68%
c ^  0.03  0 23 0 4 69 1 5752 770 72% 14 240 62 68%
c -  0.04  0 23 0 5 69 1 6453 414 70% 13 240 62 68%
c u  0.04  0 22 0 5 69 1 7134 703 69% 13 240 62 68%
c -  0.05  0 21 0 6 69 1 8690 568 65% 12 240 62 68%
c u  0.06  0 20 0 6 69 1 10433 1342 62% 11 240 62 68%
c -  0.06  0 19 0 7 69 1 11139 704 61% 11 240 62 68%
c ^  0.07  0 19 0 7 69 1 11986 1036 60% 11 240 62 68%
c -  0.08  0 19 0 8 69 1 13784 1055 59% 10 240 62 68%
c u  0.08  0 18 0 8 69 1 14497 1353 59% 10 240 62 68%
c -  0.09  0 18 0 9 69 1 16612 1323 58% 10 240 62 68%
c u  0.11  0 17 0 9 69 1 19365 2287 57% 10 240 62 68%
c
c  seconds  switched  rate          trail  variables
c         MB  reductions conflicts     glue    remaining
c          level  restarts   redundant irredundant
c
c -  0.11  0 17 0 10 69 1 19613 1234 57% 9 240 62 68%
c e  0.12  0 17 0 10 69 1 22027 2358 55% 9 256 58 64%
c ^  0.12  0 17 0 10 69 1 22027 2358 55% 9 256 58 64%
c -  0.13  0 17 0 11 91 1 22777 627 55% 9 256 58 64%
c u  0.14  0 17 0 11 91 1 25059 1591 56% 9 256 58 64%
c -  0.15  0 17 0 12 91 1 26094 1497 56% 9 256 58 64%
c -  0.16  0 17 0 13 456 2 29558 2034 56% 9 256 58 64%
c u  0.17  0 17 0 13 1099 2 31699 2949 55% 9 256 58 64%
c -  0.19  0 17 0 14 1501 2 33165 1732 55% 9 256 58 64%
c ^  0.20  0 18 0 14 2495 3 36616 3293 54% 9 256 58 64%
c -  0.21  0 18 0 15 2578 3 36909 1353 54% 9 256 58 64%
c -  0.23  0 18 0 16 3685 3 40783 1158 53% 10 256 58 64%
c -  0.25  0 17 0 17 3704 3 44783 1800 52% 9 256 58 64%
c u  0.27  0 17 0 17 3704 3 47634 2718 51% 9 256 58 64%
c -  0.27  0 17 0 18 3704 3 48906 2409 51% 9 256 58 64%
c -  0.29  0 17 0 19 3704 3 53148 2747 51% 9 256 58 64%
c e  0.31  0 17 0 19 3704 3 55928 3920 51% 9 432 47 52%
c !  0.31  0 17 0 19 3704 3 55928 3920 51% 9 432 47 52%
c u  0.32  0 17 0 19 3884 3 57001 1657 52% 9 432 47 52%
c v  0.32  0 17 0 19 3884 3 57001 1656 52% 9 432 47 52%
c
c  seconds  switched    rate          trail  variables
c         MB  reductions  conflicts      glue    remaining
c          level   restarts    redundant irredundant
c
c -  0.32  0 17 0 20 3951 3 57506 1255 52% 9 432 47 52%
c -  0.35  0 17 0 21 4632 3 61979 1780 53% 9 432 47 52%
c -  0.37  0 17 0 22 5571 3 66563 1704 53% 9 432 47 52%
c u  0.38  0 17 0 22 6327 3 69281 2691 53% 9 432 47 52%
c v  0.38  0 17 0 22 6327 3 69282 2690 53% 9 432 47 52%
c -  0.40  0 17 0 23 6883 3 71254 1521 53% 9 432 47 52%
c -  0.43  0 17 0 24 7389 3 76049 1816 54% 9 432 47 52%
c -  0.45  0 17 0 25 8845 4 80947 1865 53% 10 432 47 52%
c u  0.46  0 17 0 25 9322 4 82632 2587 54% 10 432 47 52%
c -  0.48  0 17 0 26 9485 4 85949 2093 54% 10 432 47 52%
c -  0.51  0 17 0 27 9485 4 91050 2833 54% 9 432 47 52%
c -  0.54  0 17 0 28 9485 3 96250 3607 53% 9 432 47 52%
c u  0.55  0 17 0 28 9485 3 97122 3953 53% 9 432 47 52%
c v  0.55  0 17 0 28 9485 3 97122 3952 53% 9 432 47 52%
c -  0.57  0 17 0 29 10066 3 101542 4064 54% 9 432 47 52%
c -  0.61  0 17 0 30 11011 4 106927 2832 54% 9 432 47 52%
c -  0.64  0 17 0 31 11990 4 112404 2114 53% 10 432 47 52%
c u  0.65  0 17 0 31 12055 4 112779 2208 54% 10 432 47 52%
c v  0.65  0 17 0 31 12055 4 112780 2207 54% 10 432 47 52%
c -  0.68  0 17 0 32 12573 4 117971 1991 54% 10 432 47 52%
c
c  seconds  switched     rate           trail   variables
c         MB  reductions   conflicts        glue    remaining
c          level   restarts      redundant  irredundant
c
c -  0.71  0 17 0 33 12595 3 123629 2309 54% 10 432 47 52%
c -  0.74  0 17 0 34 12595 3 129376 2590 53% 10 432 47 52%
c u  0.74  0 17 0 34 12595 3 129614 2607 53% 9 432 47 52%
c -  0.77  0 17 0 35 12791 3 135207 2992 54% 9 432 47 52%
c -  0.80  0 17 0 36 12791 3 141124 3188 54% 9 432 47 52%
c -  0.84  0 16 0 37 12791 3 147125 3768 53% 9 432 47 52%
c u  0.84  0 16 0 37 12791 3 147643 3874 53% 9 432 47 52%
c v  0.84  0 16 0 37 12791 3 147643 3873 53% 9 432 47 52%
c -  0.88  0 16 0 38 13367 3 153207 4028 53% 9 432 47 52%
c -  0.92  0 16 0 39 13500 3 159372 3505 53% 9 432 47 52%
c -  0.96  0 16 0 40 14182 3 165617 3018 53% 9 432 47 52%
c u  0.97  0 16 0 40 14182 3 166917 3205 53% 9 432 47 52%
c v  0.97  0 16 0 40 14182 3 166917 3197 53% 9 432 47 52%
c -  1.01  0 16 0 41 14991 3 171941 2481 53% 9 432 47 52%
c -  1.05  0 16 0 42 15866 3 178345 1967 53% 9 432 47 52%
c -  1.08  0 16 0 43 15866 3 184825 2745 53% 9 432 47 52%
c u  1.10  0 16 0 43 15866 3 187390 3816 53% 9 432 47 52%
c v  1.10  0 16 0 43 15866 3 187390 3807 53% 9 432 47 52%
c -  1.12  0 16 0 44 16002 3 191383 3451 53% 9 432 47 52%
c -  1.16  0 16 0 45 17195 3 198017 3148 53% 9 432 47 52%
c
c  seconds  switched     rate           trail   variables
c         MB  reductions   conflicts        glue    remaining
c          level   restarts      redundant  irredundant
c
c -  1.20  0 16 0 46 18193 3 204728 2751 53% 10 432 47 52%
c u  1.23  0 16 0 46 18967 3 209106 4474 53% 10 432 47 52%
c v  1.23  0 16 0 46 18967 3 209106 4473 53% 10 432 47 52%
c -  1.25  0 16 0 47 19112 3 211511 2467 53% 10 432 47 52%
c -  1.29  0 16 0 48 19112 3 218368 2894 53% 10 432 47 52%
c -  1.33  0 16 0 49 19112 3 225298 3595 52% 9 432 47 52%
c -  1.39  0 16 0 50 19894 3 232299 3786 53% 9 432 47 52%
c -  1.44  0 16 0 51 20964 3 239371 3325 53% 10 432 47 52%
c -  1.49  0 16 0 52 21972 3 246513 3077 53% 10 432 47 52%
c -  1.54  0 16 0 53 23069 3 253724 2942 53% 10 432 47 52%
c u  1.55  0 16 0 53 23514 3 256336 3903 53% 10 432 47 52%
c v  1.55  0 16 0 53 23514 3 256336 3901 53% 10 432 47 52%
c -  1.59  0 16 0 54 24317 3 261005 2795 53% 10 432 47 52%
c -  1.63  0 17 0 55 25425 3 268354 2811 53% 10 432 47 52%
c -  1.68  0 16 0 56 25425 3 275772 2922 53% 10 432 47 52%
c u  1.72  0 16 0 56 25425 3 281840 4356 53% 10 432 47 52%
c -  1.73  0 16 0 57 25544 3 283255 3025 53% 10 432 47 52%
c -  1.78  0 16 0 58 25633 3 290806 4058 53% 10 432 47 52%
c -  1.83  0 16 0 59 25638 3 298421 3669 53% 10 432 47 52%
c -  1.87  0 16 0 60 25638 3 306102 3395 53% 10 432 47 52%
c
c  seconds  switched     rate           trail   variables
c         MB  reductions   conflicts        glue    remaining
c          level   restarts      redundant  irredundant
c
c u  1.89  0 15 0 60 25638 3 308631 4159 52% 10 432 47 52%
c -  1.93  0 16 0 61 26361 3 313852 3641 53% 10 432 47 52%
c -  1.98  0 16 0 62 27161 3 321662 3092 52% 10 432 47 52%
c -  2.03  0 15 0 63 27194 3 329537 3370 52% 10 432 47 52%
c u  2.07  0 15 0 63 27729 3 336884 6276 52% 10 432 47 52%
c v  2.07  0 15 0 63 27729 3 336886 6267 52% 10 432 47 52%
c -  2.08  0 15 0 64 27815 3 337474 3754 52% 10 432 47 52%
c -  2.14  0 16 0 65 29220 3 345474 3684 52% 10 432 47 52%
c -  2.20  0 15 0 66 29445 3 353537 3605 52% 10 432 47 52%
c -  2.25  0 15 0 67 30716 3 361661 3853 52% 10 432 47 52%
c u  2.28  0 15 0 67 30716 3 366430 5237 52% 10 432 47 52%
c v  2.28  0 15 0 67 30716 3 366434 5233 52% 10 432 47 52%
c -  2.31  0 15 0 68 30716 3 369846 3591 52% 10 432 47 52%
c -  2.36  0 15 0 69 30841 3 378093 4278 52% 10 432 47 52%
c -  2.42  0 15 0 70 31275 3 386400 4284 51% 10 432 47 52%
c -  2.48  0 14 0 71 31275 2 394767 4015 51% 9 432 47 52%
c u  2.50  0 14 0 71 31275 2 397393 2936 51% 9 432 47 52%
c v  2.50  0 14 0 71 31275 2 397422 2863 51% 9 432 47 52%
c -  2.55  0 14 0 72 31764 2 403198 3073 51% 9 432 47 52%
c -  2.60  0 14 0 73 32217 2 411684 3680 51% 9 432 47 52%
c
c  seconds  switched     rate           trail  variables
c         MB  reductions   conflicts       glue    remaining
c          level   restarts      redundant irredundant
c
c -  2.66  0 14 0 74 32245 2 420231 4278 51% 9 432 47 52%
c -  2.72  0 14 0 75 33438 2 428833 4829 51% 9 432 47 52%
c u  2.74  0 14 0 75 33452 2 429775 2859 51% 9 432 47 52%
c v  2.74  0 14 0 75 33452 2 429793 2803 51% 9 432 47 52%
c w  2.74  0 14 0 75 33452 2 429793 2803 51% 9 432 47 52%
c 2  2.74  0 14 0 75 33452 2 429793 2803 51% 9 429 47 52%
c -  2.80  0 14 0 76 34188 2 437493 3813 51% 9 429 47 52%
c -  2.87  0 14 0 77 34428 2 446210 4607 51% 9 429 47 52%
c -  2.92  0 14 0 78 34428 2 454984 5397 51% 9 429 47 52%
c t  2.98  0 13 0 78 34428 2 463195 7567 50% 9 429 47 52%
c u  2.99  0 13 0 78 34428 2 463322 5068 50% 9 429 47 52%
c v  2.99  0 13 0 78 34428 2 463328 5053 50% 9 429 47 52%
c -  3.00  0 13 0 79 34428 2 463815 3809 50% 9 429 47 52%
c -  3.06  0 13 0 80 34493 2 472705 5684 50% 9 429 47 52%
c -  3.13  0 13 0 81 35092 2 481649 6502 50% 9 429 47 52%
c -  3.21  0 13 0 82 35733 2 490650 6544 50% 9 429 47 52%
c u  3.29  0 13 0 82 36045 2 498224 6195 50% 9 429 47 52%
c v  3.29  0 13 0 82 36045 2 498272 6139 50% 9 429 47 52%
c w  3.29  0 13 0 82 36045 2 498272 6139 50% 9 422 47 52%
c 2  3.29  0 13 0 82 36045 2 498272 6139 50% 9 415 47 52%
c
c  seconds  switched     rate           trail  variables
c         MB  reductions   conflicts       glue    remaining
c          level   restarts      redundant irredundant
c
c -  3.31  0 13 0 83 36105 2 499706 4951 50% 9 415 47 52%
c -  3.38  0 13 0 84 36221 2 508817 6085 49% 9 415 47 52%
c -  3.45  0 12 0 85 36280 2 517982 7077 49% 9 415 47 52%
c i  3.47  0 12 0 85 36280 2 522081 7676 49% 9 415 45 49%
c i  3.50  0 12 0 85 36281 2 526049 8837 49% 8 415 44 48%
c -  3.53  0 12 0 86 36281 2 527201 3146 48% 8 412 44 48%
c i  3.53  0 12 0 86 36281 2 527882 3284 48% 8 412 43 47%
c i  3.54  0 12 0 86 36281 2 528777 3448 48% 8 412 42 46%
c i  3.54  0 12 0 86 36281 2 529129 3517 48% 8 412 41 45%
c i  3.54  0 12 0 86 36281 2 529312 3537 48% 8 412 40 44%
c i  3.54  0 12 0 86 36281 2 529449 3566 48% 8 412 38 42%
c i  3.54  0 12 0 86 36281 2 529503 3577 48% 8 412 37 41%
c i  3.54  0 12 0 86 36281 2 529515 3581 48% 8 412 33 36%
c i  3.54  0 12 0 86 36281 2 529523 3585 48% 8 412 30 33%
c i  3.54  0 12 0 86 36281 2 529530 3582 48% 8 412 29 32%
c i  3.54  0 12 0 86 36281 2 529531 3582 48% 8 412 28 31%
c }  3.54  0 12 0 86 36281 2 529533 3582 48% 8 412 24 26%
c 0  3.54  0 12 0 86 36281 2 529533 3582 48% 8 412 24 26%
c
c ---- [ result ] ------------------------------------------------------------
c
s UNSATISFIABLE
c
c ---- [ profiling ] ---------------------------------------------------------
c
c           3.38   95.46 %  search
c           3.38   95.46 %  focused
c           0.39   11.03 %  reduce
c           0.16    4.53 %  simplify
c           0.15    4.17 %  probe
c           0.11    3.19 %  vivify
c           0.02    0.54 %  sweep
c           0.01    0.36 %  eliminate
c           0.01    0.36 %  substitute
c           0.00    0.04 %  transitive
c           0.00    0.01 %  subsume
c           0.00    0.01 %  ternary
c           0.00    0.01 %  failed
c           0.00    0.01 %  backbone
c           0.00    0.00 %  parse
c =============================================
c           3.54  100.00 %  total
c
c ---- [ statistics ] --------------------------------------------------------
c
c clauses_learned:                     345830               65 %  conflicts
c conflicts:                           529533           149398.84 per second
c decisions:                           977848                1.85 per conflict
c forward_strengthened:                    20                1 %  strengthened
c kitten_conflicts:                      4084                0.88 per solved
c kitten_decisions:                    116312               24.92 per solved
c kitten_propagations:                 161435               34.59 per solved
c kitten_sat:                            4559               98 %  solved
c kitten_solved:                         4667 
c kitten_ticks:                       1123930                6.96 per propagation
c kitten_unknown:                          34                1 %  solved
c kitten_unsat:                            74                2 %  solved
c literals_bumped:                    9156105               26.48 per clause
c literals_deduced:                   5061429               14.64 per clause
c literals_learned:                   4179743               12.09 per clause
c literals_minimized:                       0                0 %  deduced
c literals_minimize_shrunken:           49904                6 %  shrunken
c literals_shrunken:                   881699               17 %  deduced
c propagations:                       2268577           640041    per second
c reductions:                              86             6157    interval
c restarts:                             36281               14.60 interval
c restarts_reused_trails:               25429               70 %  restarts
c strengthened:                          1716                2 %  checks
c subsumption_checks:                   72628 
c subsumed:                            149513              206 %  checks
c sweep:                                   32            16548    interval
c sweep_completed:                          8                4    sweeps
c sweep_equivalences:                       0                0    variables
c sweep_sat:                             4559               99 %  sweep_solved
c sweep_solved:                          4593               98 %  kitten_solved
c sweep_units:                              0                0 %  variables
c sweep_unsat:                              0                0 %  sweep_solved
c sweep_variables:                        297              326 %  variables
c
c ---- [ proof ] -------------------------------------------------------------
c
c proof_added:                         479448               50 %  per line
c proof_bytes:                       43637739               42 MB 
c proof_deleted:                       475670               50 %  per line
c
c ---- [ resources ] ---------------------------------------------------------
c
c maximum-resident-set-size:       7566524416 bytes       7216 MB
c process-time:                             4s               3.54 seconds
c
c ---- [ shutting down ] -----------------------------------------------------
c
c exit 20
-rw-r--r--  1 bryant  staff  43637739 Mar 11 02:57 chew-32-123456.drat
c parsing input formula with 90 variables and 240 clauses
c finished parsing
c detected empty clause; start verification via backward checking
c 240 of 240 clauses in core                            
c 295832 of 479449 lemmas in core using 1975957 resolution steps
c 0 RAT lemmas in core; 748 redundant literals in core lemmas
s VERIFIED
c verification time: 2.789 seconds
